// Objective function
Min: 775x1 + 800x2 + 800x3 + 800x4 + 800x5 + 775x6 + 750x7;

// Constraints
x3 + x4 + x5 +x6 +x7 >= 18;
x1 + x4 +x5 +x6 +x7 >= 27;
x1 + x2 + x5 +x6 +x7 >= 22;
x1+ x2 +x3 +x6 +x7 >= 26;
x1+ x2 + x3 + x4 +x7 >= 25;
x1+ x2 +x3 +x4 +x5 >= 21;
x2+ x3 + x4 +x5 +x6 >= 19;

